l=2617;
a=5;
setup_costs=[|23,23,23,23,23,
|23,23,23,23,23,
|23,23,23,23,23,
|23,23,23,23,23,
|23,23,23,23,23,
|0,0,0,0,0|];
setup_times=[|14,14,14,14,14,
|14,14,14,14,14,
|14,14,14,14,14,
|14,14,14,14,14,
|14,14,14,14,14,
|0,0,0,0,0|];
m=5;
min_cap=[0,0,0,0,0];
max_cap=[22,70,56,52,46];

initState=[4,1,3,2,2];
s=5;
m_a_s = [|0,0,0,475,2418,
|0,0,0,1264,1399,
|0,0,0,0,815,
|1535,1677,1768,2206,2360,
|0,0,1872,1971,2009|];
m_a_e = [|0,0,0,2000,2550,
|0,0,0,1341,2505,
|0,0,0,0,1401,
|1647,1728,2172,2335,2609,
|0,0,1925,2009,2250|];
n=10;
eligible_machine = [{2,1,4,5},
{1,3,4,5},
{1,4,5},
{2,1,4},
{1,2,5},
{2,1,3,4,5},
{3,1,2,5},
{1,3},
{4,1,2,5},
{4,1,3}];
earliest_start=[37,17,34,14,27,1,21,31,2,13];
latest_end=[458,51,194,272,141,115,53,170,238,86];
min_time=[87,13,38,69,74,41,22,47,80,34];
max_time=[91,59,97,100,75,95,98,54,87,73];
size=[3,9,11,17,17,12,13,14,18,17];
attribute=[1,2,3,5,5,1,4,4,5,3];

upper_bound_integer_objective=17243100;
mult_factor_total_runtime=1288;
mult_factor_finished_toolate=1642200;
mult_factor_total_setuptimes=0;
mult_factor_total_setupcosts=714;
running_time_bound=505;
min_duration=13;
max_duration=87;
max_setup_time=14;
max_setup_cost=23;
